data/rand/rand_058.gr
p tdp 15 79
1 2
1 4
1 5
1 6
1 8
1 9
1 11
1 12
1 13
1 15
2 3
2 4
2 5
2 7
2 8
2 9
2 12
2 13
2 14
2 15
3 4
3 5
3 6
3 9
3 10
3 11
3 12
3 13
3 14
3 15
4 5
4 7
4 10
4 12
4 13
4 14
4 15
5 6
5 7
5 9
5 13
5 14
5 15
6 7
6 9
6 10
6 11
6 14
7 8
7 9
7 11
7 12
7 13
7 14
7 15
8 9
8 10
8 11
8 12
8 13
8 14
8 15
9 10
9 11
9 12
9 15
10 11
10 12
10 13
10 15
11 12
11 13
11 14
11 15
12 13
12 14
12 15
13 15
14 15
