solutions/best/rand/rand_058.sol
13
0
1
2
3
4
5
6
15
11
7
8
10
11
11
12
